unsat
(:max-memory                   18.15
 :memory                       17.96
 :nlsat-conflicts              12
 :nlsat-decisions              5
 :nlsat-irrational-assignments 1
 :nlsat-propagations           50
 :nlsat-stages                 10
 :num-allocs                   56869
 :rlimit-count                 31651
 :time                         0.02
 :total-time                   0.03)
